c 117_3_checker_6cl.cnf
c
c field = 117
c formula set type = 3_checker_6cl
c
p cnf 6 46
226 
228 
230 
-225 
-222 
-234 
227 
229 
231 
-224 
-223 
-235 
226 
228 
230 
-235 
-224 
-236 
227 
229 
231 
-234 
-225 
-237 
228 
230 
234 
-227 
-224 
-236 
229 
231 
235 
-226 
-225 
-237 
228 
230 
234 
-237 
-226 
-238 
229 
231 
235 
-236 
-227 
-239 
230 
234 
236 
-229 
-226 
-238 
231 
235 
237 
-228 
-227 
-239 
142 
172 
202 
-113 
-82 
-262 
143 
173 
203 
-112 
-83 
-263 
142 
172 
202 
-263 
-112 
-292 
143 
173 
203 
-262 
-113 
-293 
172 
202 
262 
-143 
-112 
-292 
173 
203 
263 
-142 
-113 
-293 
172 
202 
262 
-293 
-142 
-322 
173 
203 
263 
-292 
-143 
-323 
202 
262 
292 
-173 
-142 
-322 
203 
263 
293 
-172 
-143 
-323 
202 
262 
292 
-323 
-172 
-352 
203 
263 
293 
-322 
-173 
-353 
262 
292 
322 
-203 
-172 
-352 
263 
293 
323 
-202 
-173 
-353 
262 
292 
322 
-353 
-202 
-382 
263 
293 
323 
-352 
-203 
-383 
136 
168 
200 
-105 
-72 
-264 
137 
169 
201 
-104 
-73 
-265 
136 
168 
200 
-265 
-104 
-296 
137 
169 
201 
-264 
-105 
-297 
168 
200 
264 
-137 
-104 
-296 
169 
201 
265 
-136 
-105 
-297 
168 
200 
264 
-297 
-136 
-328 
169 
201 
265 
-296 
-137 
-329 
200 
264 
296 
-169 
-136 
-328 
201 
265 
297 
-168 
-137 
-329 
176 
204 
260 
-289 
-148 
-316 
177 
205 
261 
-288 
-149 
-317 
204 
260 
288 
-177 
-148 
-316 
205 
261 
289 
-176 
-149 
-317 
204 
260 
288 
-317 
-176 
-344 
205 
261 
289 
-316 
-177 
-345 
260 
288 
316 
-205 
-176 
-344 
261 
289 
317 
-204 
-177 
-345 
260 
288 
316 
-345 
-204 
-372 
261 
289 
317 
-344 
-205 
-373 
